c description: Random 3-CNF over 23 variables and 98 clauses
c generator: CNFgen (0.9.2)
c copyright: (C) 2012-2022 Massimo Lauria <massimo.lauria@uniroma1.it>
c url: https://massimolauria.net/cnfgen
c command line: cnfgen --output CNF_4.28/23_bit_98_111.cnf randkcnf 3 23 98
c
p cnf 23 98
15 -18 -19 0
-4 -10 22 0
13 -15 18 0
11 -14 -20 0
1 7 -10 0
1 11 -12 0
-9 -16 -21 0
-5 -18 -23 0
5 -11 14 0
-1 -20 23 0
-13 -17 -22 0
-3 -12 23 0
2 7 -19 0
4 11 -23 0
3 -21 22 0
-3 4 -9 0
4 11 -12 0
10 -19 -21 0
-1 -3 9 0
-5 -10 -13 0
-2 -19 -21 0
1 -5 -19 0
3 9 -15 0
-4 11 -20 0
2 14 -16 0
-13 -14 -22 0
5 15 -21 0
-4 -7 -11 0
1 -2 -8 0
6 -13 21 0
-1 6 18 0
1 -13 23 0
-8 18 -19 0
2 18 20 0
-2 15 -21 0
-7 -9 11 0
4 8 15 0
1 -12 -23 0
3 16 -20 0
4 -8 17 0
-7 9 -12 0
5 14 21 0
5 -15 20 0
5 -6 -23 0
5 -12 22 0
3 -6 11 0
5 -12 -22 0
-18 -19 -23 0
-14 20 22 0
-1 16 -22 0
2 3 -20 0
-6 -11 -16 0
8 -11 12 0
6 11 -17 0
-4 16 17 0
-6 8 10 0
-16 17 20 0
-9 21 -22 0
-2 20 -23 0
-15 -17 -18 0
-1 9 -14 0
10 -16 -18 0
1 -2 21 0
-1 13 -23 0
-1 -3 -22 0
12 21 -23 0
6 8 13 0
-1 -7 23 0
6 -16 -23 0
1 -4 -15 0
-7 16 21 0
-4 13 22 0
5 19 22 0
1 -8 17 0
7 18 22 0
-9 -16 -18 0
-8 -10 -23 0
1 -9 -22 0
-5 -21 22 0
-2 -11 -23 0
-10 20 21 0
1 -3 11 0
-11 17 19 0
10 -16 -22 0
-6 18 21 0
-9 11 -13 0
8 -15 18 0
-1 20 23 0
-4 19 -20 0
-14 -16 18 0
9 -13 -18 0
-7 -9 10 0
9 -11 -13 0
6 11 12 0
-7 -11 13 0
-6 -15 -16 0
5 10 -17 0
4 -11 -23 0
